
===== New CPLEX run =====
Instance: /home/yorig/tuner/mpils-tests/instances/miplib/easy/mas74.mps
Config: /scratch/yorig/mpils-results-grid-ticks-10000-divide/easy/16proc/seed-4/5_mas74_seed-4_20260429_043455/expansion/config_param_CPXPARAM_MIP_Strategy_Dive_1_iter_1.prm
========================

Selected objective sense:  MINIMIZE
Selected objective  name:  obj
Selected RHS        name:  rhs
Selected bound      name:  bnd
Version identifier: 22.1.2.0 | 2024-11-26 | 0edbb82fd
CPXPARAM_Threads                                 8
CPXPARAM_Parallel                                1
CPXPARAM_MIP_Cuts_Cliques                        1
CPXPARAM_MIP_Cuts_FlowCovers                     1
CPXPARAM_MIP_Cuts_Implied                        -1
CPXPARAM_MIP_Cuts_GUBCovers                      -1
CPXPARAM_MIP_Limits_GomoryCand                   10
CPXPARAM_MIP_Cuts_Gomory                         2
CPXPARAM_MIP_Cuts_PathCut                        2
CPXPARAM_MIP_Cuts_MIRCut                         -1
CPXPARAM_MIP_Cuts_Disjunctive                    2
CPXPARAM_Emphasis_MIP                            3
CPXPARAM_MIP_Strategy_Dive                       1
CPXPARAM_DetTimeLimit                            10000
Found incumbent of value 157344.610330 after 0.00 sec. (0.02 ticks)
Tried aggregator 1 time.
MIP Presolve eliminated 0 rows and 3 columns.
Reduced MIP has 13 rows, 148 columns, and 1682 nonzeros.
Reduced MIP has 145 binaries, 2 generals, 0 SOSs, and 0 indicators.
Presolve time = 0.00 sec. (0.84 ticks)
Probing time = 0.00 sec. (0.09 ticks)
Tried aggregator 1 time.
Detecting symmetries...
Reduced MIP has 13 rows, 148 columns, and 1682 nonzeros.
Reduced MIP has 145 binaries, 2 generals, 0 SOSs, and 0 indicators.
Presolve time = 0.00 sec. (0.79 ticks)
Probing time = 0.00 sec. (0.09 ticks)
MIP emphasis: best bound.
MIP search method: dynamic search.
Parallel mode: deterministic, using up to 8 threads.
Root relaxation solution time = 0.01 sec. (0.72 ticks)

        Nodes                                         Cuts/
   Node  Left     Objective  IInf  Best Integer    Best Bound    ItCnt     Gap

*     0+    0                       157344.6103        0.0000           100.00%
*     0+    0                        51840.4943        0.0000           100.00%
      0     0    10482.7953    12    51840.4943    10482.7953       43   79.78%
*     0+    0                        19197.4680    10482.7953            45.39%
      0     0    10526.7004    13    19197.4680      Fract: 1       51   45.17%
*     0+    0                        14901.6028    10526.7004            29.36%
      0     0    10549.2365    14    14901.6028      Fract: 1       59   29.21%
*     0+    0                        14692.2744    10549.2365            28.20%
      0     0    10553.2582    15    14692.2744      Fract: 1       65   28.17%
      0     0    10557.5476    16    14692.2744      Fract: 1       71   28.14%
      0     0    10560.8992    16    14692.2744      Fract: 1       79   28.12%
Detecting symmetries...
      0     0    10564.8486    16    14692.2744   LiftProj: 1       87   28.09%
*     0+    0                        13886.0272    10564.8486            23.92%
      0     0    10567.6171    17    13886.0272   LiftProj: 1       92   23.90%
      0     0    10568.6950    18    13886.0272   LiftProj: 1       97   23.89%
      0     0    10569.2729    19    13886.0272   LiftProj: 1      100   23.89%
      0     0    10569.3085    20    13886.0272   LiftProj: 1      102   23.89%
*     0+    0                        12915.1000    10569.3085            18.16%
*     0+    0                        12715.8924    10587.6058            16.74%
      0     0  -1.00000e+75     0    12715.8924    10587.6058      102   16.74%
Detecting symmetries...
      0     2    10569.3085    20    12715.8924    10587.6058      102   16.74%
Elapsed time = 0.74 sec. (55.02 ticks, tree = 0.02 MB, solutions = 8)
*    40+    3                        12640.3713    10587.6058            16.24%

Performing restart 1

Repeating presolve.
Tried aggregator 1 time.
MIP Presolve eliminated 0 rows and 30 columns.
Reduced MIP has 13 rows, 118 columns, and 1295 nonzeros.
Reduced MIP has 116 binaries, 1 generals, 0 SOSs, and 0 indicators.
Presolve time = 0.00 sec. (0.46 ticks)
Tried aggregator 1 time.
Reduced MIP has 13 rows, 118 columns, and 1295 nonzeros.
Reduced MIP has 116 binaries, 1 generals, 0 SOSs, and 0 indicators.
Presolve time = 0.00 sec. (0.60 ticks)
Represolve time = 0.00 sec. (2.71 ticks)
   2095     0    10571.2621    22    12640.3713   LiftProj: 1    12660   14.99%
*  2302+  122                        12464.1000    10745.7109            13.79%
*  2823+  497                        12180.1000    10745.7109            11.78%
*  3086+  655                        12161.3713    10751.6268            11.59%
   5087  2492    11157.2467    12    12161.3713    10829.9790    29856   10.95%
  13732 10193    11082.8047    11    12161.3713    10950.9827    84324    9.95%
* 14878+11398                        12039.4680    10965.5323             8.92%
  22920 19933    11088.4810    12    12039.4680    11024.3481   154025    8.43%
* 26253+22537                        12015.0899    11041.8550             8.10%
  32244 27710    11425.6641    11    12015.0899    11073.1266   208549    7.84%
  38636 35046    11144.1921    11    12015.0899    11091.8451   259807    7.68%
* 42426+38128                        11857.3713    11091.8451             6.46%
  43154 38860    11223.7877    11    11857.3713    11091.8451   290518    6.46%
  47853 42811    11719.5736    10    11857.3713    11091.8451   319593    6.46%
  52792 47754    11228.5464    12    11857.3713    11091.8451   355182    6.46%
  58275 52528    11671.5760    11    11857.3713    11091.8451   389607    6.46%

Performing restart 2

Repeating presolve.
Tried aggregator 1 time.
MIP Presolve eliminated 0 rows and 21 columns.
Reduced MIP has 13 rows, 97 columns, and 1030 nonzeros.
Reduced MIP has 95 binaries, 1 generals, 0 SOSs, and 0 indicators.
Presolve time = 0.00 sec. (0.35 ticks)
Tried aggregator 1 time.
Reduced MIP has 13 rows, 97 columns, and 1030 nonzeros.
Reduced MIP has 95 binaries, 1 generals, 0 SOSs, and 0 indicators.
Presolve time = 0.01 sec. (0.46 ticks)
Represolve time = 0.03 sec. (3.60 ticks)
  89747 25725    11159.8684    12    11857.3713    11145.0067   595399    6.01%
Elapsed time = 12.89 sec. (3154.77 ticks, tree = 5.82 MB, solutions = 17)
 127009 59086    11250.5618    12    11857.3713    11209.9871   833947    5.46%
 165116 90556    11331.2795    12    11857.3713    11271.0940  1062176    4.94%
 204021 124112    11336.9058    12    11857.3713    11314.9432  1308813    4.57%
 243294 155715    11722.0430     9    11857.3713    11349.4744  1548507    4.28%
 282561 185532    11409.4653     9    11857.3713    11377.0910  1779346    4.05%
 322658 217045    11665.4592    11    11857.3713    11401.3888  2029329    3.85%
 363210 246840    11547.3198    12    11857.3713    11422.5890  2268477    3.67%

Clique cuts applied:  0
Cover cuts applied:  83
Flow cuts applied:  0
Flow path cuts applied:  0
Lift and project cuts applied:  8
Gomory fractional cuts applied:  3
Disjunctive cuts applied:  0
Cone linearizations applied:  0

Root node processing (before b&c):
  Real time             =    0.66 sec. (54.96 ticks)
Parallel b&c, 8 threads:
  Real time             =   34.08 sec. (9945.69 ticks)
  Sync time (average)   =   15.65 sec.
  Wait time (average)   =    0.24 sec.
                          ------------
Total (root+branch&cut) =   34.74 sec. (10000.66 ticks)
Gap: 3.63%
Upper bound: 11857.4
Lower bound: 11426.9
End of CPLEX run. Time: 34.786 seconds
